************************************************************************
file with basedata            : cm441_.bas
initial value random generator: 2011626189
************************************************************************
projects                      :  1
jobs (incl. supersource/sink ):  18
horizon                       :  147
RESOURCES
  - renewable                 :  2   R
  - nonrenewable              :  2   N
  - doubly constrained        :  0   D
************************************************************************
PROJECT INFORMATION:
pronr.  #jobs rel.date duedate tardcost  MPM-Time
    1     16      0       18       10       18
************************************************************************
PRECEDENCE RELATIONS:
jobnr.    #modes  #successors   successors
   1        1          3           2   3   4
   2        4          3           5   7  13
   3        4          2           9  14
   4        4          3           7  11  12
   5        4          1           6
   6        4          3           8   9  10
   7        4          2           8  10
   8        4          1          16
   9        4          3          11  12  16
  10        4          1          14
  11        4          2          15  17
  12        4          2          15  17
  13        4          2          14  16
  14        4          2          15  17
  15        4          1          18
  16        4          1          18
  17        4          1          18
  18        1          0        
************************************************************************
REQUESTS/DURATIONS:
jobnr. mode duration  R 1  R 2  N 1  N 2
------------------------------------------------------------------------
  1      1     0       0    0    0    0
  2      1     1       8    0    3    3
         2     2       7    0    3    3
         3     3       7    0    2    3
         4     7       6    0    2    3
  3      1     2       6    0    6    6
         2     3       6    0    5    4
         3     4       5    0    4    3
         4    10       5    0    4    2
  4      1     4       0    7    9    8
         2     6       8    0    7    7
         3     8       8    0    6    5
         4    10       6    0    4    4
  5      1     3       0    7    9    1
         2     5       5    0    9    1
         3     8       4    0    9    1
         4    10       0    7    8    1
  6      1     1       0    4    6    9
         2     1       8    0    6    8
         3     3       3    0    5    6
         4     9       1    0    4    3
  7      1     3       8    0    7    7
         2     5       7    0    4    4
         3     5       0    4    4    6
         4     9       7    0    1    4
  8      1     1       0    8    6   10
         2     2       4    0    5    8
         3     9       0    6    5    7
         4    10       1    0    4    7
  9      1     3       0    8    9    9
         2     6       0    7    9    9
         3     8       0    5    8    9
         4    10       8    0    6    8
 10      1     2       0    8    7    7
         2     5       0    7    5    7
         3     8       0    4    4    4
         4    10       7    0    3    4
 11      1     1       0    2    9    9
         2     2       9    0    7    7
         3     5       0    1    7    4
         4     9       0    1    5    1
 12      1     5       7    0   10    3
         2     6       0    9    8    2
         3     6       4    0    8    3
         4     8       0   10    8    1
 13      1     3       0    4    6    6
         2     3       9    0    6    5
         3     6       9    0    4    5
         4     8       0    4    2    5
 14      1     2       8    0    6    7
         2     3       7    0    5    7
         3     6       0    4    5    5
         4     9       0    2    3    3
 15      1     3       0    5    5    6
         2     8       0    4    4    4
         3     9       0    3    4    4
         4    10      10    0    3    2
 16      1     2       6    0    2    5
         2     2       0    5    2    4
         3     3       0    5    1    4
         4     9       8    0    1    3
 17      1     5       2    0   10    8
         2     6       2    0    8    8
         3     8       0    5    5    7
         4     9       2    0    3    6
 18      1     0       0    0    0    0
************************************************************************
RESOURCEAVAILABILITIES:
  R 1  R 2  N 1  N 2
   12    7   86   81
************************************************************************
